
Gurobi 7.5.2 (win64, Matlab) logging started 07/27/19 10:31:18


Gurobi 7.5.2 (win64) logging started 07/27/19 10:31:18


Gurobi 7.5.2 (win64, Matlab) logging started 07/27/19 10:33:57


Gurobi 7.5.2 (win64) logging started 07/27/19 10:33:57


Gurobi 7.5.2 (win64, Matlab) logging started 07/27/19 11:00:43


Gurobi 7.5.2 (win64) logging started 07/27/19 11:00:43


Gurobi 7.5.2 (win64, Matlab) logging started 07/27/19 11:02:52


Gurobi 7.5.2 (win64) logging started 07/27/19 11:02:52


Gurobi 7.5.2 (win64, Matlab) logging started 07/27/19 11:22:36


Gurobi 7.5.2 (win64) logging started 07/27/19 11:22:36


Gurobi 9.0.0 (win64, Matlab) logging started 01/20/20 15:53:50


Gurobi 9.0.0 (win64, Matlab) logging started 01/20/20 15:53:50


Gurobi 9.0.0 (win64, Matlab) logging started 01/20/20 15:53:50


Gurobi 9.0.0 (win64, Matlab) logging started 01/21/20 08:08:15


Gurobi 9.0.0 (win64, Matlab) logging started 01/21/20 08:08:15


Gurobi 9.0.0 (win64, Matlab) logging started 01/21/20 08:08:15


Gurobi 9.0.0 (win64, Matlab) logging started 01/21/20 08:09:33


Gurobi 9.0.0 (win64, Matlab) logging started 01/21/20 08:09:33


Gurobi 9.0.0 (win64, Matlab) logging started 01/21/20 08:09:33


Gurobi 9.0.0 (win64, Matlab) logging started 01/21/20 08:09:34


Gurobi 9.0.0 (win64, Matlab) logging started 01/21/20 08:09:34


Gurobi 9.0.0 (win64, Matlab) logging started 01/21/20 08:09:34


Gurobi 9.0.1 (win64, Matlab) logging started 02/02/20 07:01:55


Gurobi 9.0.1 (win64, Matlab) logging started 02/02/20 07:01:55


Gurobi 9.0.1 (win64, Matlab) logging started 02/02/20 07:01:55

